Version identifier: 22.1.0.0 | 2022-03-09 | 1a383f8ce
CPXPARAM_Threads                                 1
CPXPARAM_MIP_Strategy_VariableSelect             3
CPXPARAM_TimeLimit                               600
Tried aggregator 1 time.
MIP Presolve eliminated 10 rows and 0 columns.
Reduced MIP has 4510 rows, 10001 columns, and 91786 nonzeros.
Reduced MIP has 10000 binaries, 0 generals, 0 SOSs, and 0 indicators.
Presolve time = 0.04 sec. (31.71 ticks)
Found incumbent of value 20.000000 after 0.13 sec. (98.16 ticks)
Probing time = 0.01 sec. (4.48 ticks)
Tried aggregator 1 time.
Detecting symmetries...
Reduced MIP has 4510 rows, 10001 columns, and 91786 nonzeros.
Reduced MIP has 10000 binaries, 0 generals, 0 SOSs, and 0 indicators.
Presolve time = 0.06 sec. (39.34 ticks)
Probing time = 0.01 sec. (4.48 ticks)
Clique table members: 500.
MIP emphasis: balance optimality and feasibility.
MIP search method: dynamic search.
Parallel mode: none, using 1 thread.
Root relaxation solution time = 4.89 sec. (4374.37 ticks)

        Nodes                                         Cuts/
   Node  Left     Objective  IInf  Best Integer    Best Bound    ItCnt     Gap

*     0+    0                           20.0000        0.0000           100.00%
      0     0        0.0000  2120       20.0000        0.0000    10886  100.00%
*     0+    0                            2.0000        0.0000           100.00%
*     0+    0                            1.0000        0.0000           100.00%
Detecting symmetries...
      0     2        0.0000   198        1.0000        0.0000    10886  100.00%
Elapsed time = 31.81 sec. (27186.04 ticks, tree = 0.01 MB, solutions = 3)
      1     3        0.0000   377        1.0000        0.0000    32229  100.00%
      2     4        0.0000   278        1.0000        0.0000    38708  100.00%
      3     5        0.0000   540        1.0000        0.0000    48405  100.00%
      4     6        0.0000   548        1.0000        0.0000    51506  100.00%
      5     7        0.0000   532        1.0000        0.0000    52254  100.00%
      6     8        0.0000   528        1.0000        0.0000    53350  100.00%
      7     9        0.0000   482        1.0000        0.0000    64841  100.00%
      8    10        0.0000   442        1.0000        0.0000    92703  100.00%
      9    11        0.0000   469        1.0000        0.0000    92856  100.00%
     10    12        0.0000   676        1.0000        0.0000    96105  100.00%
Elapsed time = 80.59 sec. (70817.23 ticks, tree = 0.28 MB, solutions = 3)
     11    13        0.0000   472        1.0000        0.0000   101069  100.00%
     12    14        0.0000   382        1.0000        0.0000   105706  100.00%
     13    15        0.0000   437        1.0000        0.0000   139947  100.00%
     14    16        0.0000   378        1.0000        0.0000   142056  100.00%
     15    17        0.0000   362        1.0000        0.0000   146909  100.00%
     16    18        0.0000   767        1.0000        0.0000   156384  100.00%
     18    20        0.0000   569        1.0000        0.0000   160185  100.00%
     20    22       -0.0000   460        1.0000        0.0000   166422  100.00%
     21    23       -0.0000   602        1.0000        0.0000   171052  100.00%
     22    24       -0.0000   443        1.0000        0.0000   173573  100.00%
Elapsed time = 125.18 sec. (110876.52 ticks, tree = 0.67 MB, solutions = 3)
     24    26       -0.0000   573        1.0000        0.0000   177203  100.00%
     26    28       -0.0000   429        1.0000        0.0000   178194  100.00%
     27    29       -0.0000   548        1.0000        0.0000   183891  100.00%
     29    31        0.0000   599        1.0000        0.0000   187708  100.00%
     30    32       -0.0000   430        1.0000        0.0000   187821  100.00%
     32    34       -0.0000   378        1.0000        0.0000   188263  100.00%
     34    36       -0.0000   439        1.0000        0.0000   190738  100.00%
     36    38       -0.0000   380        1.0000        0.0000   191549  100.00%
     38    40       -0.0000   393        1.0000        0.0000   194779  100.00%
     40    42       -0.0000   489        1.0000        0.0000   198626  100.00%
Elapsed time = 149.52 sec. (132120.61 ticks, tree = 1.22 MB, solutions = 3)
     42    44       -0.0000   383        1.0000        0.0000   199093  100.00%
     44    46       -0.0000   374        1.0000        0.0000   201126  100.00%
     45    47       -0.0000   408        1.0000        0.0000   202267  100.00%
     46    48        0.0000   540        1.0000        0.0000   205488  100.00%
     48    50       -0.0000   371        1.0000        0.0000   209849  100.00%
     49    51       -0.0000   360        1.0000        0.0000   212412  100.00%
     50    52       -0.0000   364        1.0000        0.0000   213126  100.00%
     51    53        0.0000   613        1.0000        0.0000   221228  100.00%
     53    55       -0.0000   356        1.0000        0.0000   221714  100.00%
     54    56       -0.0000   400        1.0000        0.0000   225651  100.00%
Elapsed time = 207.08 sec. (180831.93 ticks, tree = 1.65 MB, solutions = 3)
     55    57       -0.0000   316        1.0000        0.0000   228277  100.00%
     56    58       -0.0000   359        1.0000        0.0000   229578  100.00%
     57    59       -0.0000   443        1.0000        0.0000   234074  100.00%
     59    61       -0.0000   462        1.0000        0.0000   237455  100.00%
     61    63       -0.0000   363        1.0000        0.0000   240395  100.00%
     62    64        0.0000   547        1.0000        0.0000   241224  100.00%
     63    65        0.0000   443        1.0000        0.0000   247018  100.00%
     64    66        0.0000   579        1.0000        0.0000   262323  100.00%
     66    68        0.0000   325        1.0000        0.0000   270391  100.00%
     67    69        0.0000   880        1.0000        0.0000   285935  100.00%
Elapsed time = 245.03 sec. (213462.89 ticks, tree = 2.09 MB, solutions = 3)
     68    70        0.0000   313        1.0000        0.0000   286974  100.00%
     69    71        0.0000   416        1.0000        0.0000   298468  100.00%
     71    73        0.0000   387        1.0000        0.0000   306858  100.00%
     73    75        0.0000   291        1.0000        0.0000   318696  100.00%
     74    76        0.0000   313        1.0000        0.0000   326243  100.00%
     75    77        0.0000   375        1.0000        0.0000   328216  100.00%
     76    78        0.0000   301        1.0000        0.0000   340188  100.00%
     77    79        0.0000  1441        1.0000        0.0000   357523  100.00%
     79    81        0.0000   449        1.0000        0.0000   359252  100.00%
     80    82        0.0000   421        1.0000        0.0000   361564  100.00%
Elapsed time = 291.81 sec. (253093.25 ticks, tree = 2.49 MB, solutions = 3)
     81    83        0.0000   423        1.0000        0.0000   373054  100.00%
     83    85        0.0000  1313        1.0000        0.0000   396895  100.00%
     85    87       -0.0000   365        1.0000        0.0000   397845  100.00%
     87    89        0.0000   345        1.0000        0.0000   401782  100.00%
     88    90        0.0000   283        1.0000        0.0000   408920  100.00%
     89    91        0.0000   309        1.0000        0.0000   411784  100.00%
     91    93        0.0000   245        1.0000        0.0000   412934  100.00%
     93    95        0.0000   248        1.0000        0.0000   415034  100.00%
     95    97        0.0000   242        1.0000        0.0000   416076  100.00%
     96    98        0.0000   292        1.0000        0.0000   419807  100.00%
Elapsed time = 325.73 sec. (283165.48 ticks, tree = 3.01 MB, solutions = 3)
     98   100        0.0000   220        1.0000        0.0000   420671  100.00%
    100   102        0.0000   217        1.0000        0.0000   422311  100.00%
    102   104        0.0000   275        1.0000        0.0000   427918  100.00%
    103   105        0.0000   248        1.0000        0.0000   429790  100.00%
    105   107        0.0000   349        1.0000        0.0000   432594  100.00%
    108   110        0.0000   217        1.0000        0.0000   433252  100.00%
    110   112        0.0000   207        1.0000        0.0000   435037  100.00%
    112   114        0.0000   295        1.0000        0.0000   437093  100.00%
    114   116        0.0000   260        1.0000        0.0000   442071  100.00%
    115   117        0.0000   226        1.0000        0.0000   446070  100.00%
Elapsed time = 350.11 sec. (303722.28 ticks, tree = 3.78 MB, solutions = 3)
    117   119        0.0000   221        1.0000        0.0000   452449  100.00%
    119   121        0.0000   250        1.0000        0.0000   457915  100.00%
    120   122        0.0000   212        1.0000        0.0000   460858  100.00%
    121   123        0.0000   241        1.0000        0.0000   472600  100.00%
    122   124        0.0000   269        1.0000        0.0000   474708  100.00%
    123   125        0.0000   246        1.0000        0.0000   485950  100.00%
    124   126        0.0000   331        1.0000        0.0000   493967  100.00%
    125   127        0.0000   381        1.0000        0.0000   497826  100.00%
    127   129        0.0000   208        1.0000        0.0000   505496  100.00%
    128   130        0.0000   260        1.0000        0.0000   508029  100.00%
Elapsed time = 387.36 sec. (335718.91 ticks, tree = 4.25 MB, solutions = 3)
    129   131        0.0000   206        1.0000        0.0000   510407  100.00%
    130   132        0.0000   178        1.0000        0.0000   513966  100.00%
    131   133        0.0000   187        1.0000        0.0000   523892  100.00%
    133   135        0.0000   167        1.0000        0.0000   532420  100.00%
    134   136        0.0000   344        1.0000        0.0000   548515  100.00%
    135   137        0.0000   204        1.0000        0.0000   558902  100.00%
    136   138        0.0000   333        1.0000        0.0000   572448  100.00%
    138   140        0.0000   364        1.0000        0.0000   589038  100.00%
    140   142        0.0000   178        1.0000        0.0000   593451  100.00%
    141   143        0.0000   209        1.0000        0.0000   603571  100.00%
Elapsed time = 447.87 sec. (387451.98 ticks, tree = 4.73 MB, solutions = 3)
    144   146        0.0000   250        1.0000        0.0000   618601  100.00%
    148   150        0.0000   154        1.0000        0.0000   628300  100.00%
    152   154        0.0000   174        1.0000        0.0000   636957  100.00%
    156   158        0.0000   179        1.0000        0.0000   645859  100.00%
    158   160        0.0000   261        1.0000        0.0000   656055  100.00%
    163   165        0.0000   170        1.0000        0.0000   660816  100.00%
    168   170        0.0000   175        1.0000        0.0000   666459  100.00%
    171   173        0.0000   183        1.0000        0.0000   675266  100.00%
    174   176        0.0000   282        1.0000        0.0000   697149  100.00%
    177   179        0.0000   338        1.0000        0.0000   715319  100.00%
Elapsed time = 516.36 sec. (446252.87 ticks, tree = 6.13 MB, solutions = 3)
    178   180        0.0000   342        1.0000        0.0000   725932  100.00%
    181   183        0.0000   261        1.0000        0.0000   740002  100.00%
    183   185        0.0000   230        1.0000        0.0000   753901  100.00%
    184   186        0.0000   244        1.0000        0.0000   763725  100.00%
    186   188        0.0000   225        1.0000        0.0000   776688  100.00%
    188   190       -0.0000   278        1.0000        0.0000   795140  100.00%

Root node processing (before b&c):
  Real time             =   31.70 sec. (27102.09 ticks)
Sequential b&c:
  Real time             =  568.31 sec. (489125.82 ticks)
                          ------------
Total (root+branch&cut) =  600.01 sec. (516227.91 ticks)
Primal:	1
Dual:	0
Status:	Feasible
Time:	600.04
Sequence:
	9
	0
	7
	9
	0
	7
	9
	0
	16
	1
	12
	14
	19
	12
	14
	1
	12
	13
	10
	0
	16
	1
	11
	15
	1
	11
	2
	1
	11
	15
	1
	11
	18
	1
	11
	15
	1
	11
	15
	1
	11
	2
	19
	11
	2
	1
	11
	6
	9
	11
	13
	9
	11
	4
	9
	11
	4
	9
	6
	11
	9
	13
	11
	1
	15
	7
	1
	0
	15
	10
	12
	13
	9
	7
	0
	1
	7
	12
	1
	16
	12
	1
	16
	0
	10
	16
	0
	15
	14
	6
	8
	5
	7
	17
	13
	16
	8
	5
	7
	8
	13
	14
	12
	19
	16
	12
	19
	7
	12
	19
	16
	12
	19
	5
	12
	10
	13
	0
	10
	15
	0
	10
	15
	0
	10
	2
	0
	10
	2
	0
	10
	2
	0
	10
	2
	0
	10
	15
	0
	11
	2
	3
	18
	2
	3
	18
	4
	2
	18
	4
	5
	9
	14
	0
	9
	4
	11
	19
	4
	11
	9
	4
	11
	9
	4
	7
	17
	13
	16
	8
	5
	14
	17
	13
	7
	17
	13
	14
	17
	4
	14
	17
	3
	16
	8
	13
	16
	8
	5
	14
	17
	6
	7
	8
	5
	7
	17
	6
	16
	8
	6
	14
	8
	3
	16
	8
	3
	14
	17
	3
	16
	8
	4
	14
	17
	3
	7
	8
	5
	7
	8
	13
	16
	8
	13
	5
	8
	7
	3
	9
	11
	4
	9
	15
	3
	1
	11
	15
	1
	11
	2
	19
	7
	12
	19
	7
	0
	9
	7
	13
	8
	7
	6
	17
	7
	13
	17
	14
	6
	8
	14
	13
	17
	14
	4
	17
	14
	13
	17
	14
	13
	8
	7
	6
	17
	14
	13
	17
	7
	5
	8
	14
	6
	17
	7
	13
	8
	16
	6
	8
	7
	3
	8
	14
	6
	17
	14
	6
	17
	11
	7
	8
	6
	16
	8
	13
	16
	8
	5
	7
	17
	6
	16
	8
	5
	7
	17
	13
	7
	17
	4
	16
	8
	13
	5
	8
	14
	18
	8
	7
	4
	18
	7
	6
	8
	16
	12
	17
	13
	4
	8
	7
	5
	8
	16
	4
	17
	19
	4
	12
	10
	13
	12
	1
	18
	12
	19
	16
	12
	19
	14
	12
	19
	16
	12
	19
	14
	12
	19
	16
	12
	19
	15
	12
	19
	16
	12
	19
	5
	12
	10
	4
	2
	18
	4
	2
	18
	3
	2
	18
	4
	2
	18
	4
	2
	18
	3
	2
	18
	4
	2
	18
	4
	2
	10
	18
	5
	9
	18
	5
	10
	2
	4
	2
	12
	4
	11
	7
	15
	0
	9
	15
	3
	9
	15
	0
	7
	5
	8
	10
	4
	10
	10
	3
	2
	9
	3
	10
	15
	3
	3
	9
	6
	11
	15
	3
	11
	1
	5
	12
	1
	16
	12
	12
	5
	9
	18
	3
	5
	8
	14
	13
	5
	16
	13
	17
	14
	3
	19
	0
	16
	9
	0
	13
	10
	12
	13
	1
	12
	13
	1
	11
	6
	1
	0
	15
	1
	0
	15
	11
	4
	2
	18
	4
	2
	18
	3
	4
	9
	7
